30 40 20
1 10 5 13 0 0 0
1 10 5 13 0 5 0
1 13 5 10 10 0 0
1 10 5 13 0 10 0
1 13 10 5 0 0 13
1 5 10 13 0 15 0
1 5 10 13 23 0 0
1 5 13 10 0 25 0
1 13 5 10 10 5 0
1 10 5 13 5 15 0
1 5 10 13 5 20 0
1 5 10 13 5 30 0
1 8 5 7 0 10 13
1 8 5 7 8 10 13
1 5 7 8 10 20 0
1 5 7 8 10 20 8
1 7 5 8 23 10 0
1 7 5 8 23 10 8
1 5 7 8 0 0 0
1 7 8 5 10 27 0
1 5 7 8 0 0 0
1 5 7 8 10 27 8
1 5 7 8 0 0 0
1 7 5 8 10 34 8
1 8 4 2 0 0 18
1 2 8 4 28 0 0
1 2 8 4 28 0 4
1 4 8 2 8 0 18
1 2 8 4 28 0 8
1 4 8 2 0 0 0
1 5 1 3 0 38 0
1 5 1 3 0 39 0
1 5 1 3 0 38 3
1 5 1 3 0 39 3
1 3 5 1 0 4 18
1 5 3 1 3 4 18
1 2 2 1 0 4 19
1 2 2 1 0 6 19
1 2 2 1 2 6 19
1 2 2 1 4 6 19
1 2 2 1 6 6 19
1 2 2 1 0 38 6
1 2 2 1 0 38 7
1 1 2 2 8 8 18
1 2 2 1 0 8 19
1 2 2 1 2 8 19
1 2 2 1 4 8 19
1 2 2 1 6 8 19
1 2 2 1 28 8 0
1 2 2 1 28 8 4
1 2 2 1 28 8 8
1 2 1 2 28 8 1
1 2 1 2 28 8 5
1 2 2 1 0 38 8
1 1 2 2 9 8 18